c ego-Facebook: Social circles from Facebook (anonymized) https://snap.stanford.edu/data/ego-Facebook.html
p edge 203 235
e 1 97
e 2 141
e 2 81
e 3 87
e 3 51
e 4 164
e 5 147
e 5 182
e 6 108
e 7 125
e 7 132
e 8 184
e 8 183
e 9 22
e 9 23
e 10 176
e 11 95
e 12 36
e 13 192
e 14 173
e 14 167
e 15 121
e 15 194
e 16 53
e 16 63
e 16 42
e 16 127
e 16 113
e 17 189
e 17 74
e 17 86
e 17 172
e 17 72
e 18 116
e 18 48
e 18 84
e 18 130
e 19 140
e 19 62
e 19 64
e 19 29
e 20 106
e 20 78
e 20 158
e 20 197
e 20 67
e 20 68
e 20 166
e 20 103
e 21 173
e 21 138
e 22 131
e 22 56
e 22 183
e 23 143
e 24 202
e 24 116
e 24 72
e 25 191
e 26 117
e 26 73
e 26 176
e 26 71
e 27 31
e 27 82
e 28 183
e 28 53
e 29 154
e 29 55
e 29 50
e 30 183
e 31 163
e 31 123
e 31 142
e 32 161
e 33 167
e 33 94
e 34 37
e 34 99
e 35 94
e 35 58
e 35 200
e 35 122
e 35 186
e 35 95
e 35 176
e 36 72
e 36 203
e 38 50
e 38 150
e 38 181
e 39 143
e 39 191
e 40 134
e 41 89
e 41 149
e 43 59
e 44 126
e 44 60
e 45 62
e 46 140
e 46 65
e 47 133
e 47 197
e 48 180
e 49 160
e 50 79
e 52 129
e 52 119
e 53 157
e 54 92
e 54 58
e 55 84
e 55 168
e 56 143
e 56 174
e 56 119
e 57 124
e 57 131
e 58 77
e 59 150
e 60 61
e 60 134
e 60 102
e 60 165
e 60 97
e 61 124
e 62 66
e 62 89
e 63 182
e 63 177
e 64 144
e 64 86
e 64 87
e 65 108
e 67 121
e 69 114
e 70 104
e 70 199
e 71 98
e 71 148
e 72 155
e 74 141
e 74 129
e 75 181
e 75 192
e 75 155
e 75 182
e 76 112
e 76 89
e 77 161
e 80 145
e 81 125
e 81 106
e 81 180
e 81 119
e 81 147
e 83 139
e 84 101
e 84 126
e 85 140
e 87 161
e 87 129
e 88 183
e 89 96
e 89 120
e 90 165
e 90 151
e 90 163
e 90 182
e 91 173
e 93 139
e 94 97
e 95 163
e 98 136
e 99 121
e 100 137
e 100 170
e 104 164
e 105 185
e 107 145
e 109 118
e 110 166
e 111 145
e 112 192
e 114 177
e 114 203
e 114 195
e 115 155
e 116 196
e 118 164
e 120 145
e 122 186
e 123 150
e 123 137
e 123 153
e 123 127
e 123 160
e 127 152
e 128 133
e 129 203
e 131 177
e 131 137
e 132 159
e 134 179
e 134 138
e 134 135
e 136 190
e 139 191
e 139 163
e 140 163
e 140 193
e 141 142
e 142 182
e 142 156
e 144 157
e 146 171
e 147 170
e 147 153
e 149 176
e 150 173
e 151 193
e 161 169
e 162 198
e 162 201
e 164 184
e 171 198
e 173 183
e 175 180
e 178 180
e 179 188
e 181 182
e 182 185
e 187 195
e 197 201
l 167
t 146 190
